NAME /Users/henri/Research/solvers/instances/idol-instances/robust/collection/cbp_Subramanyam_et_al_2020/CapBud_N10_2/models/uncertain_technology_matrix/
ROWS
 N  OBJ
 L  capacity
 L  c_495
 L  c_496
 L  c_497
 L  c_498
 L  c_499
 L  c_500
 L  c_501
 L  c_502
 L  c_503
 L  c_504
COLUMNS
    MARKER    'MARKER'                 'INTORG'
    x_0        OBJ        -4.12052
    x_0        c_495      1
    x_0        capacity   0.824105
    x_1        OBJ        -4.98388
    x_1        c_496      1
    x_1        capacity   0.996776
    x_2        OBJ        -2.43624
    x_2        c_497      1
    x_2        capacity   0.487247
    x_3        OBJ        -9.97918
    x_3        c_498      1
    x_3        capacity   1.99584
    x_4        OBJ        -6.71116
    x_4        c_499      1
    x_4        capacity   1.34223
    x_5        OBJ        -8.83779
    x_5        c_500      1
    x_5        capacity   1.76756
    x_6        OBJ        -3.92967
    x_6        c_501      1
    x_6        capacity   0.785934
    x_7        OBJ        -9.2484
    x_7        c_502      1
    x_7        capacity   1.84968
    x_8        OBJ        -2.51627
    x_8        c_503      1
    x_8        capacity   0.503254
    x_9        OBJ        -1.57884
    x_9        c_504      1
    x_9        capacity   0.315768
    y_0        OBJ        -3.29642
    y_0        c_495      1
    y_0        capacity   0.824105
    y_1        OBJ        -3.9871
    y_1        c_496      1
    y_1        capacity   0.996776
    y_2        OBJ        -1.94899
    y_2        c_497      1
    y_2        capacity   0.487247
    y_3        OBJ        -7.98334
    y_3        c_498      1
    y_3        capacity   1.99584
    y_4        OBJ        -5.36892
    y_4        c_499      1
    y_4        capacity   1.34223
    y_5        OBJ        -7.07024
    y_5        c_500      1
    y_5        capacity   1.76756
    y_6        OBJ        -3.14373
    y_6        c_501      1
    y_6        capacity   0.785934
    y_7        OBJ        -7.39872
    y_7        c_502      1
    y_7        capacity   1.84968
    y_8        OBJ        -2.01301
    y_8        c_503      1
    y_8        capacity   0.503254
    y_9        OBJ        -1.26307
    y_9        c_504      1
    y_9        capacity   0.315768
    MARKER    'MARKER'                 'INTEND'
RHS
    RHS       capacity   27.171
    RHS       c_495      1
    RHS       c_496      1
    RHS       c_497      1
    RHS       c_498      1
    RHS       c_499      1
    RHS       c_500      1
    RHS       c_501      1
    RHS       c_502      1
    RHS       c_503      1
    RHS       c_504      1
BOUNDS
 LI BND       x_0        0
 UI BND       x_0        1
 LI BND       x_1        0
 UI BND       x_1        1
 LI BND       x_2        0
 UI BND       x_2        1
 LI BND       x_3        0
 UI BND       x_3        1
 LI BND       x_4        0
 UI BND       x_4        1
 LI BND       x_5        0
 UI BND       x_5        1
 LI BND       x_6        0
 UI BND       x_6        1
 LI BND       x_7        0
 UI BND       x_7        1
 LI BND       x_8        0
 UI BND       x_8        1
 LI BND       x_9        0
 UI BND       x_9        1
 LI BND       y_0        0
 UI BND       y_0        1
 LI BND       y_1        0
 UI BND       y_1        1
 LI BND       y_2        0
 UI BND       y_2        1
 LI BND       y_3        0
 UI BND       y_3        1
 LI BND       y_4        0
 UI BND       y_4        1
 LI BND       y_5        0
 UI BND       y_5        1
 LI BND       y_6        0
 UI BND       y_6        1
 LI BND       y_7        0
 UI BND       y_7        1
 LI BND       y_8        0
 UI BND       y_8        1
 LI BND       y_9        0
 UI BND       y_9        1
ENDATA
